p cnf 838 2299
1 -2 0
2 -1 0
3 -4 0
4 -3 0
5 -6 0
6 -5 0
7 -8 0
8 -7 0
9 -10 0
10 -9 0
11 -12 0
12 -11 0
13 -14 0
14 -13 0
15 -16 0
16 -15 0
17 -18 0
18 -17 0
19 -20 0
20 -19 0
21 22 0
23 22 0
24 22 0
25 22 0
26 22 0
27 22 0
28 22 0
29 22 0
30 22 0
31 22 0
32 22 0
33 22 0
34 22 0
35 22 0
36 22 0
-37 0
-38 22 -39 0
38 -22 -39 0
39 -22 -38 0
38 22 39 0
-39 0
23 40 0
24 40 0
25 40 0
26 40 0
27 40 0
28 40 0
29 40 0
30 40 0
31 40 0
32 40 0
33 40 0
34 40 0
35 40 0
36 40 0
-41 0
40 -42 -43 0
42 -40 -43 0
43 -40 -42 0
42 40 43 0
-43 0
24 44 0
25 44 0
26 44 0
27 44 0
28 44 0
29 44 0
30 44 0
31 44 0
32 44 0
33 44 0
34 44 0
35 44 0
36 44 0
-45 0
44 -46 -47 0
46 -44 -47 0
47 -44 -46 0
46 44 47 0
-47 0
25 48 0
26 48 0
27 48 0
28 48 0
29 48 0
30 48 0
31 48 0
32 48 0
33 48 0
34 48 0
35 48 0
36 48 0
-49 0
48 -50 -51 0
50 -48 -51 0
51 -48 -50 0
50 48 51 0
-51 0
26 52 0
27 52 0
28 52 0
29 52 0
30 52 0
31 52 0
32 52 0
33 52 0
34 52 0
35 52 0
36 52 0
-53 0
52 -54 -55 0
54 -52 -55 0
55 -52 -54 0
54 52 55 0
-55 0
27 56 0
28 56 0
29 56 0
30 56 0
31 56 0
32 56 0
33 56 0
34 56 0
35 56 0
36 56 0
-57 0
56 -58 -59 0
58 -56 -59 0
59 -56 -58 0
58 56 59 0
-59 0
28 60 0
29 60 0
30 60 0
31 60 0
32 60 0
33 60 0
34 60 0
35 60 0
36 60 0
-61 0
60 -62 -63 0
62 -60 -63 0
63 -60 -62 0
62 60 63 0
-63 0
29 64 0
30 64 0
31 64 0
32 64 0
33 64 0
34 64 0
35 64 0
36 64 0
-65 0
64 -66 -67 0
66 -64 -67 0
67 -64 -66 0
66 64 67 0
-67 0
64 -68 -69 0
68 -64 -69 0
69 -64 -68 0
68 64 69 0
-69 0
64 -70 -71 0
70 -64 -71 0
71 -64 -70 0
70 64 71 0
-71 0
64 -72 -73 0
72 -64 -73 0
73 -64 -72 0
72 64 73 0
-73 0
64 -74 -75 0
74 -64 -75 0
75 -64 -74 0
74 64 75 0
-75 0
64 -76 -77 0
76 -64 -77 0
77 -64 -76 0
76 64 77 0
-77 0
64 -78 -79 0
78 -64 -79 0
79 -64 -78 0
78 64 79 0
-79 0
64 -80 -81 0
80 -64 -81 0
81 -64 -80 0
80 64 81 0
-81 0
82 83 0
84 83 0
85 83 0
86 83 0
87 83 0
88 83 0
89 83 0
90 83 0
91 83 0
92 83 0
93 83 0
94 83 0
95 83 0
-96 0
-97 83 -98 0
97 -83 -98 0
98 -83 -97 0
97 83 98 0
-98 0
84 99 0
85 99 0
86 99 0
87 99 0
88 99 0
89 99 0
90 99 0
91 99 0
92 99 0
93 99 0
94 99 0
95 99 0
-100 0
99 -101 -102 0
101 -99 -102 0
102 -99 -101 0
101 99 102 0
-102 0
85 103 0
86 103 0
87 103 0
88 103 0
89 103 0
90 103 0
91 103 0
92 103 0
93 103 0
94 103 0
95 103 0
-104 0
103 -105 -106 0
105 -103 -106 0
106 -103 -105 0
105 103 106 0
-106 0
86 107 0
87 107 0
88 107 0
89 107 0
90 107 0
91 107 0
92 107 0
93 107 0
94 107 0
95 107 0
-108 0
107 -109 -110 0
109 -107 -110 0
110 -107 -109 0
109 107 110 0
-110 0
87 111 0
88 111 0
89 111 0
90 111 0
91 111 0
92 111 0
93 111 0
94 111 0
95 111 0
-112 0
111 -113 -114 0
113 -111 -114 0
114 -111 -113 0
113 111 114 0
-114 0
88 115 0
89 115 0
90 115 0
91 115 0
92 115 0
93 115 0
94 115 0
95 115 0
-116 0
115 -117 -118 0
117 -115 -118 0
118 -115 -117 0
117 115 118 0
-118 0
115 -119 -120 0
119 -115 -120 0
120 -115 -119 0
119 115 120 0
-120 0
115 -121 -122 0
121 -115 -122 0
122 -115 -121 0
121 115 122 0
-122 0
115 -123 -124 0
123 -115 -124 0
124 -115 -123 0
123 115 124 0
-124 0
115 -125 -126 0
125 -115 -126 0
126 -115 -125 0
125 115 126 0
-126 0
115 -127 -128 0
127 -115 -128 0
128 -115 -127 0
127 115 128 0
-128 0
115 -129 -130 0
129 -115 -130 0
130 -115 -129 0
129 115 130 0
-130 0
115 -131 -132 0
131 -115 -132 0
132 -115 -131 0
131 115 132 0
-132 0
133 134 0
135 134 0
136 134 0
137 134 0
138 134 0
139 134 0
140 134 0
141 134 0
142 134 0
143 134 0
144 134 0
145 134 0
146 134 0
147 134 0
-148 0
-149 134 -150 0
149 -134 -150 0
150 -134 -149 0
149 134 150 0
-150 0
135 151 0
136 151 0
137 151 0
138 151 0
139 151 0
140 151 0
141 151 0
142 151 0
143 151 0
144 151 0
145 151 0
146 151 0
147 151 0
-152 0
151 -153 -154 0
153 -151 -154 0
154 -151 -153 0
153 151 154 0
-154 0
136 155 0
137 155 0
138 155 0
139 155 0
140 155 0
141 155 0
142 155 0
143 155 0
144 155 0
145 155 0
146 155 0
147 155 0
-156 0
155 -157 -158 0
157 -155 -158 0
158 -155 -157 0
157 155 158 0
-158 0
137 159 0
138 159 0
139 159 0
140 159 0
141 159 0
142 159 0
143 159 0
144 159 0
145 159 0
146 159 0
147 159 0
-160 0
159 -161 -162 0
161 -159 -162 0
162 -159 -161 0
161 159 162 0
-162 0
138 163 0
139 163 0
140 163 0
141 163 0
142 163 0
143 163 0
144 163 0
145 163 0
146 163 0
147 163 0
-164 0
163 -165 -166 0
165 -163 -166 0
166 -163 -165 0
165 163 166 0
-166 0
139 167 0
140 167 0
141 167 0
142 167 0
143 167 0
144 167 0
145 167 0
146 167 0
147 167 0
-168 0
167 -169 -170 0
169 -167 -170 0
170 -167 -169 0
169 167 170 0
-170 0
140 171 0
141 171 0
142 171 0
143 171 0
144 171 0
145 171 0
146 171 0
147 171 0
-172 0
171 -173 -174 0
173 -171 -174 0
174 -171 -173 0
173 171 174 0
-174 0
141 175 0
142 175 0
143 175 0
144 175 0
145 175 0
146 175 0
147 175 0
-176 0
175 -177 -178 0
177 -175 -178 0
178 -175 -177 0
177 175 178 0
-178 0
142 179 0
143 179 0
144 179 0
145 179 0
146 179 0
147 179 0
-180 0
179 -181 -182 0
181 -179 -182 0
182 -179 -181 0
181 179 182 0
-182 0
179 -183 -184 0
183 -179 -184 0
184 -179 -183 0
183 179 184 0
-184 0
179 -185 -186 0
185 -179 -186 0
186 -179 -185 0
185 179 186 0
-186 0
179 -187 -188 0
187 -179 -188 0
188 -179 -187 0
187 179 188 0
-188 0
179 -189 -190 0
189 -179 -190 0
190 -179 -189 0
189 179 190 0
-190 0
179 -191 -192 0
191 -179 -192 0
192 -179 -191 0
191 179 192 0
-192 0
193 194 0
195 194 0
196 194 0
197 194 0
198 194 0
199 194 0
200 194 0
201 194 0
202 194 0
203 194 0
204 194 0
205 194 0
-206 0
-207 194 -208 0
207 -194 -208 0
208 -194 -207 0
207 194 208 0
-208 0
195 209 0
196 209 0
197 209 0
198 209 0
199 209 0
200 209 0
201 209 0
202 209 0
203 209 0
204 209 0
205 209 0
-210 0
209 -211 -212 0
211 -209 -212 0
212 -209 -211 0
211 209 212 0
-212 0
196 213 0
197 213 0
198 213 0
199 213 0
200 213 0
201 213 0
202 213 0
203 213 0
204 213 0
205 213 0
-214 0
213 -215 -216 0
215 -213 -216 0
216 -213 -215 0
215 213 216 0
-216 0
197 217 0
198 217 0
199 217 0
200 217 0
201 217 0
202 217 0
203 217 0
204 217 0
205 217 0
-218 0
217 -219 -220 0
219 -217 -220 0
220 -217 -219 0
219 217 220 0
-220 0
198 221 0
199 221 0
200 221 0
201 221 0
202 221 0
203 221 0
204 221 0
205 221 0
-222 0
221 -223 -224 0
223 -221 -224 0
224 -221 -223 0
223 221 224 0
-224 0
199 225 0
200 225 0
201 225 0
202 225 0
203 225 0
204 225 0
205 225 0
-226 0
225 -227 -228 0
227 -225 -228 0
228 -225 -227 0
227 225 228 0
-228 0
225 -229 -230 0
229 -225 -230 0
230 -225 -229 0
229 225 230 0
-230 0
225 -231 -232 0
231 -225 -232 0
232 -225 -231 0
231 225 232 0
-232 0
225 -233 -234 0
233 -225 -234 0
234 -225 -233 0
233 225 234 0
-234 0
225 -235 -236 0
235 -225 -236 0
236 -225 -235 0
235 225 236 0
-236 0
225 -237 -238 0
237 -225 -238 0
238 -225 -237 0
237 225 238 0
-238 0
225 -239 -240 0
239 -225 -240 0
240 -225 -239 0
239 225 240 0
-240 0
241 242 0
243 242 0
244 242 0
245 242 0
246 242 0
247 242 0
248 242 0
249 242 0
250 242 0
251 242 0
252 242 0
253 242 0
254 242 0
255 242 0
-256 0
-257 242 -258 0
257 -242 -258 0
258 -242 -257 0
257 242 258 0
-258 0
243 259 0
244 259 0
245 259 0
246 259 0
247 259 0
248 259 0
249 259 0
250 259 0
251 259 0
252 259 0
253 259 0
254 259 0
255 259 0
-260 0
259 -261 -262 0
261 -259 -262 0
262 -259 -261 0
261 259 262 0
-262 0
244 263 0
245 263 0
246 263 0
247 263 0
248 263 0
249 263 0
250 263 0
251 263 0
252 263 0
253 263 0
254 263 0
255 263 0
-264 0
263 -265 -266 0
265 -263 -266 0
266 -263 -265 0
265 263 266 0
-266 0
245 267 0
246 267 0
247 267 0
248 267 0
249 267 0
250 267 0
251 267 0
252 267 0
253 267 0
254 267 0
255 267 0
-268 0
267 -269 -270 0
269 -267 -270 0
270 -267 -269 0
269 267 270 0
-270 0
246 271 0
247 271 0
248 271 0
249 271 0
250 271 0
251 271 0
252 271 0
253 271 0
254 271 0
255 271 0
-272 0
271 -273 -274 0
273 -271 -274 0
274 -271 -273 0
273 271 274 0
-274 0
247 275 0
248 275 0
249 275 0
250 275 0
251 275 0
252 275 0
253 275 0
254 275 0
255 275 0
-276 0
275 -277 -278 0
277 -275 -278 0
278 -275 -277 0
277 275 278 0
-278 0
248 279 0
249 279 0
250 279 0
251 279 0
252 279 0
253 279 0
254 279 0
255 279 0
-280 0
279 -281 -282 0
281 -279 -282 0
282 -279 -281 0
281 279 282 0
-282 0
279 -283 -284 0
283 -279 -284 0
284 -279 -283 0
283 279 284 0
-284 0
279 -285 -286 0
285 -279 -286 0
286 -279 -285 0
285 279 286 0
-286 0
279 -287 -288 0
287 -279 -288 0
288 -279 -287 0
287 279 288 0
-288 0
279 -289 -290 0
289 -279 -290 0
290 -279 -289 0
289 279 290 0
-290 0
279 -291 -292 0
291 -279 -292 0
292 -279 -291 0
291 279 292 0
-292 0
279 -293 -294 0
293 -279 -294 0
294 -279 -293 0
293 279 294 0
-294 0
279 -295 -296 0
295 -279 -296 0
296 -279 -295 0
295 279 296 0
-296 0
297 298 0
299 298 0
300 298 0
301 298 0
302 298 0
303 298 0
304 298 0
305 298 0
306 298 0
307 298 0
308 298 0
309 298 0
310 298 0
-311 0
-312 298 -313 0
312 -298 -313 0
313 -298 -312 0
312 298 313 0
-313 0
299 314 0
300 314 0
301 314 0
302 314 0
303 314 0
304 314 0
305 314 0
306 314 0
307 314 0
308 314 0
309 314 0
310 314 0
-315 0
314 -316 -317 0
316 -314 -317 0
317 -314 -316 0
316 314 317 0
-317 0
300 318 0
301 318 0
302 318 0
303 318 0
304 318 0
305 318 0
306 318 0
307 318 0
308 318 0
309 318 0
310 318 0
-319 0
318 -320 -321 0
320 -318 -321 0
321 -318 -320 0
320 318 321 0
-321 0
301 322 0
302 322 0
303 322 0
304 322 0
305 322 0
306 322 0
307 322 0
308 322 0
309 322 0
310 322 0
-323 0
322 -324 -325 0
324 -322 -325 0
325 -322 -324 0
324 322 325 0
-325 0
302 326 0
303 326 0
304 326 0
305 326 0
306 326 0
307 326 0
308 326 0
309 326 0
310 326 0
-327 0
326 -328 -329 0
328 -326 -329 0
329 -326 -328 0
328 326 329 0
-329 0
303 330 0
304 330 0
305 330 0
306 330 0
307 330 0
308 330 0
309 330 0
310 330 0
-331 0
330 -332 -333 0
332 -330 -333 0
333 -330 -332 0
332 330 333 0
-333 0
304 334 0
305 334 0
306 334 0
307 334 0
308 334 0
309 334 0
310 334 0
-335 0
334 -336 -337 0
336 -334 -337 0
337 -334 -336 0
336 334 337 0
-337 0
334 -338 -339 0
338 -334 -339 0
339 -334 -338 0
338 334 339 0
-339 0
334 -340 -341 0
340 -334 -341 0
341 -334 -340 0
340 334 341 0
-341 0
334 -342 -343 0
342 -334 -343 0
343 -334 -342 0
342 334 343 0
-343 0
334 -344 -345 0
344 -334 -345 0
345 -334 -344 0
344 334 345 0
-345 0
334 -346 -347 0
346 -334 -347 0
347 -334 -346 0
346 334 347 0
-347 0
334 -348 -349 0
348 -334 -349 0
349 -334 -348 0
348 334 349 0
-349 0
350 351 0
352 351 0
353 351 0
354 351 0
355 351 0
356 351 0
357 351 0
358 351 0
359 351 0
360 351 0
361 351 0
362 351 0
363 351 0
364 351 0
365 351 0
-366 0
-367 351 -368 0
367 -351 -368 0
368 -351 -367 0
367 351 368 0
-368 0
352 369 0
353 369 0
354 369 0
355 369 0
356 369 0
357 369 0
358 369 0
359 369 0
360 369 0
361 369 0
362 369 0
363 369 0
364 369 0
365 369 0
-370 0
369 -371 -372 0
371 -369 -372 0
372 -369 -371 0
371 369 372 0
-372 0
353 373 0
354 373 0
355 373 0
356 373 0
357 373 0
358 373 0
359 373 0
360 373 0
361 373 0
362 373 0
363 373 0
364 373 0
365 373 0
-374 0
373 -375 -376 0
375 -373 -376 0
376 -373 -375 0
375 373 376 0
-376 0
354 377 0
355 377 0
356 377 0
357 377 0
358 377 0
359 377 0
360 377 0
361 377 0
362 377 0
363 377 0
364 377 0
365 377 0
-378 0
377 -379 -380 0
379 -377 -380 0
380 -377 -379 0
379 377 380 0
-380 0
355 381 0
356 381 0
357 381 0
358 381 0
359 381 0
360 381 0
361 381 0
362 381 0
363 381 0
364 381 0
365 381 0
-382 0
381 -383 -384 0
383 -381 -384 0
384 -381 -383 0
383 381 384 0
-384 0
356 385 0
357 385 0
358 385 0
359 385 0
360 385 0
361 385 0
362 385 0
363 385 0
364 385 0
365 385 0
-386 0
385 -387 -388 0
387 -385 -388 0
388 -385 -387 0
387 385 388 0
-388 0
357 389 0
358 389 0
359 389 0
360 389 0
361 389 0
362 389 0
363 389 0
364 389 0
365 389 0
-390 0
389 -391 -392 0
391 -389 -392 0
392 -389 -391 0
391 389 392 0
-392 0
358 393 0
359 393 0
360 393 0
361 393 0
362 393 0
363 393 0
364 393 0
365 393 0
-394 0
393 -395 -396 0
395 -393 -396 0
396 -393 -395 0
395 393 396 0
-396 0
393 -397 -398 0
397 -393 -398 0
398 -393 -397 0
397 393 398 0
-398 0
393 -399 -400 0
399 -393 -400 0
400 -393 -399 0
399 393 400 0
-400 0
393 -401 -402 0
401 -393 -402 0
402 -393 -401 0
401 393 402 0
-402 0
393 -403 -404 0
403 -393 -404 0
404 -393 -403 0
403 393 404 0
-404 0
393 -405 -406 0
405 -393 -406 0
406 -393 -405 0
405 393 406 0
-406 0
393 -407 -408 0
407 -393 -408 0
408 -393 -407 0
407 393 408 0
-408 0
393 -409 -410 0
409 -393 -410 0
410 -393 -409 0
409 393 410 0
-410 0
411 412 0
413 412 0
414 412 0
415 412 0
416 412 0
417 412 0
418 412 0
419 412 0
420 412 0
421 412 0
-422 0
-423 412 -424 0
423 -412 -424 0
424 -412 -423 0
423 412 424 0
-424 0
413 425 0
414 425 0
415 425 0
416 425 0
417 425 0
418 425 0
419 425 0
420 425 0
421 425 0
-426 0
425 -427 -428 0
427 -425 -428 0
428 -425 -427 0
427 425 428 0
-428 0
414 429 0
415 429 0
416 429 0
417 429 0
418 429 0
419 429 0
420 429 0
421 429 0
-430 0
429 -431 -432 0
431 -429 -432 0
432 -429 -431 0
431 429 432 0
-432 0
415 433 0
416 433 0
417 433 0
418 433 0
419 433 0
420 433 0
421 433 0
-434 0
433 -435 -436 0
435 -433 -436 0
436 -433 -435 0
435 433 436 0
-436 0
416 437 0
417 437 0
418 437 0
419 437 0
420 437 0
421 437 0
-438 0
437 -439 -440 0
439 -437 -440 0
440 -437 -439 0
439 437 440 0
-440 0
437 -441 -442 0
441 -437 -442 0
442 -437 -441 0
441 437 442 0
-442 0
437 -443 -444 0
443 -437 -444 0
444 -437 -443 0
443 437 444 0
-444 0
437 -445 -446 0
445 -437 -446 0
446 -437 -445 0
445 437 446 0
-446 0
437 -447 -448 0
447 -437 -448 0
448 -437 -447 0
447 437 448 0
-448 0
437 -449 -450 0
449 -437 -450 0
450 -437 -449 0
449 437 450 0
-450 0
451 452 0
453 452 0
454 452 0
455 452 0
456 452 0
457 452 0
458 452 0
459 452 0
460 452 0
461 452 0
462 452 0
463 452 0
464 452 0
-465 0
-466 452 -467 0
466 -452 -467 0
467 -452 -466 0
466 452 467 0
-467 0
453 468 0
454 468 0
455 468 0
456 468 0
457 468 0
458 468 0
459 468 0
460 468 0
461 468 0
462 468 0
463 468 0
464 468 0
-469 0
468 -470 -471 0
470 -468 -471 0
471 -468 -470 0
470 468 471 0
-471 0
454 472 0
455 472 0
456 472 0
457 472 0
458 472 0
459 472 0
460 472 0
461 472 0
462 472 0
463 472 0
464 472 0
-473 0
472 -474 -475 0
474 -472 -475 0
475 -472 -474 0
474 472 475 0
-475 0
455 476 0
456 476 0
457 476 0
458 476 0
459 476 0
460 476 0
461 476 0
462 476 0
463 476 0
464 476 0
-477 0
476 -478 -479 0
478 -476 -479 0
479 -476 -478 0
478 476 479 0
-479 0
456 480 0
457 480 0
458 480 0
459 480 0
460 480 0
461 480 0
462 480 0
463 480 0
464 480 0
-481 0
480 -482 -483 0
482 -480 -483 0
483 -480 -482 0
482 480 483 0
-483 0
457 484 0
458 484 0
459 484 0
460 484 0
461 484 0
462 484 0
463 484 0
464 484 0
-485 0
484 -486 -487 0
486 -484 -487 0
487 -484 -486 0
486 484 487 0
-487 0
484 -488 -489 0
488 -484 -489 0
489 -484 -488 0
488 484 489 0
-489 0
484 -490 -491 0
490 -484 -491 0
491 -484 -490 0
490 484 491 0
-491 0
484 -492 -493 0
492 -484 -493 0
493 -484 -492 0
492 484 493 0
-493 0
484 -494 -495 0
494 -484 -495 0
495 -484 -494 0
494 484 495 0
-495 0
484 -496 -497 0
496 -484 -497 0
497 -484 -496 0
496 484 497 0
-497 0
484 -498 -499 0
498 -484 -499 0
499 -484 -498 0
498 484 499 0
-499 0
484 -500 -501 0
500 -484 -501 0
501 -484 -500 0
500 484 501 0
-501 0
502 503 0
504 503 0
505 503 0
506 503 0
507 503 0
508 503 0
509 503 0
510 503 0
511 503 0
512 503 0
513 503 0
514 503 0
515 503 0
-516 0
-517 503 -518 0
517 -503 -518 0
518 -503 -517 0
517 503 518 0
-518 0
504 519 0
505 519 0
506 519 0
507 519 0
508 519 0
509 519 0
510 519 0
511 519 0
512 519 0
513 519 0
514 519 0
515 519 0
-520 0
519 -521 -522 0
521 -519 -522 0
522 -519 -521 0
521 519 522 0
-522 0
505 523 0
506 523 0
507 523 0
508 523 0
509 523 0
510 523 0
511 523 0
512 523 0
513 523 0
514 523 0
515 523 0
-524 0
523 -525 -526 0
525 -523 -526 0
526 -523 -525 0
525 523 526 0
-526 0
506 527 0
507 527 0
508 527 0
509 527 0
510 527 0
511 527 0
512 527 0
513 527 0
514 527 0
515 527 0
-528 0
527 -529 -530 0
529 -527 -530 0
530 -527 -529 0
529 527 530 0
-530 0
507 531 0
508 531 0
509 531 0
510 531 0
511 531 0
512 531 0
513 531 0
514 531 0
515 531 0
-532 0
531 -533 -534 0
533 -531 -534 0
534 -531 -533 0
533 531 534 0
-534 0
508 535 0
509 535 0
510 535 0
511 535 0
512 535 0
513 535 0
514 535 0
515 535 0
-536 0
535 -537 -538 0
537 -535 -538 0
538 -535 -537 0
537 535 538 0
-538 0
509 539 0
510 539 0
511 539 0
512 539 0
513 539 0
514 539 0
515 539 0
-540 0
539 -541 -542 0
541 -539 -542 0
542 -539 -541 0
541 539 542 0
-542 0
539 -543 -544 0
543 -539 -544 0
544 -539 -543 0
543 539 544 0
-544 0
539 -545 -546 0
545 -539 -546 0
546 -539 -545 0
545 539 546 0
-546 0
539 -547 -548 0
547 -539 -548 0
548 -539 -547 0
547 539 548 0
-548 0
539 -549 -550 0
549 -539 -550 0
550 -539 -549 0
549 539 550 0
-550 0
539 -551 -552 0
551 -539 -552 0
552 -539 -551 0
551 539 552 0
-552 0
539 -553 -554 0
553 -539 -554 0
554 -539 -553 0
553 539 554 0
-554 0
555 -2 -556 0
2 -555 -556 0
-555 -2 556 0
2 555 556 0
-556 0
557 -4 -558 0
4 -557 -558 0
-557 -4 558 0
4 557 558 0
-558 0
559 -6 -560 0
6 -559 -560 0
-559 -6 560 0
6 559 560 0
-560 0
561 -8 -562 0
8 -561 -562 0
-561 -8 562 0
8 561 562 0
-562 0
563 -10 -564 0
10 -563 -564 0
-563 -10 564 0
10 563 564 0
-564 0
565 -12 -566 0
12 -565 -566 0
-565 -12 566 0
12 565 566 0
-566 0
567 -14 -568 0
14 -567 -568 0
-567 -14 568 0
14 567 568 0
-568 0
569 -16 -570 0
16 -569 -570 0
-569 -16 570 0
16 569 570 0
-570 0
571 -18 -572 0
18 -571 -572 0
-571 -18 572 0
18 571 572 0
-572 0
573 -20 -574 0
20 -573 -574 0
-573 -20 574 0
20 573 574 0
-574 0
575 -21 -576 0
21 -575 -576 0
-575 -21 576 0
21 575 576 0
-576 0
577 -23 -578 0
23 -577 -578 0
-577 -23 578 0
23 577 578 0
-578 0
579 -24 -580 0
24 -579 -580 0
-579 -24 580 0
24 579 580 0
-580 0
581 -25 -582 0
25 -581 -582 0
-581 -25 582 0
25 581 582 0
-582 0
583 -26 -584 0
26 -583 -584 0
-583 -26 584 0
26 583 584 0
-584 0
585 -27 -586 0
27 -585 -586 0
-585 -27 586 0
27 585 586 0
-586 0
587 -28 -588 0
28 -587 -588 0
-587 -28 588 0
28 587 588 0
-588 0
589 -29 -590 0
29 -589 -590 0
-589 -29 590 0
29 589 590 0
-590 0
591 -30 -592 0
30 -591 -592 0
-591 -30 592 0
30 591 592 0
-592 0
593 -31 -594 0
31 -593 -594 0
-593 -31 594 0
31 593 594 0
-594 0
595 -32 -596 0
32 -595 -596 0
-595 -32 596 0
32 595 596 0
-596 0
597 -33 -598 0
33 -597 -598 0
-597 -33 598 0
33 597 598 0
-598 0
599 -34 -600 0
34 -599 -600 0
-599 -34 600 0
34 599 600 0
-600 0
601 -35 -602 0
35 -601 -602 0
-601 -35 602 0
35 601 602 0
-602 0
603 -36 -604 0
36 -603 -604 0
-603 -36 604 0
36 603 604 0
-604 0
605 -82 -606 0
82 -605 -606 0
-605 -82 606 0
82 605 606 0
-606 0
607 -84 -608 0
84 -607 -608 0
-607 -84 608 0
84 607 608 0
-608 0
609 -85 -610 0
85 -609 -610 0
-609 -85 610 0
85 609 610 0
-610 0
611 -86 -612 0
86 -611 -612 0
-611 -86 612 0
86 611 612 0
-612 0
613 -87 -614 0
87 -613 -614 0
-613 -87 614 0
87 613 614 0
-614 0
615 -88 -616 0
88 -615 -616 0
-615 -88 616 0
88 615 616 0
-616 0
617 -89 -618 0
89 -617 -618 0
-617 -89 618 0
89 617 618 0
-618 0
619 -90 -620 0
90 -619 -620 0
-619 -90 620 0
90 619 620 0
-620 0
621 -91 -622 0
91 -621 -622 0
-621 -91 622 0
91 621 622 0
-622 0
623 -92 -624 0
92 -623 -624 0
-623 -92 624 0
92 623 624 0
-624 0
625 -93 -626 0
93 -625 -626 0
-625 -93 626 0
93 625 626 0
-626 0
627 -94 -628 0
94 -627 -628 0
-627 -94 628 0
94 627 628 0
-628 0
629 -95 -630 0
95 -629 -630 0
-629 -95 630 0
95 629 630 0
-630 0
631 -133 -632 0
133 -631 -632 0
-631 -133 632 0
133 631 632 0
-632 0
633 -135 -634 0
135 -633 -634 0
-633 -135 634 0
135 633 634 0
-634 0
635 -136 -636 0
136 -635 -636 0
-635 -136 636 0
136 635 636 0
-636 0
637 -137 -638 0
137 -637 -638 0
-637 -137 638 0
137 637 638 0
-638 0
639 -138 -640 0
138 -639 -640 0
-639 -138 640 0
138 639 640 0
-640 0
641 -139 -642 0
139 -641 -642 0
-641 -139 642 0
139 641 642 0
-642 0
643 -140 -644 0
140 -643 -644 0
-643 -140 644 0
140 643 644 0
-644 0
645 -141 -646 0
141 -645 -646 0
-645 -141 646 0
141 645 646 0
-646 0
647 -142 -648 0
142 -647 -648 0
-647 -142 648 0
142 647 648 0
-648 0
649 -143 -650 0
143 -649 -650 0
-649 -143 650 0
143 649 650 0
-650 0
651 -144 -652 0
144 -651 -652 0
-651 -144 652 0
144 651 652 0
-652 0
653 -145 -654 0
145 -653 -654 0
-653 -145 654 0
145 653 654 0
-654 0
655 -146 -656 0
146 -655 -656 0
-655 -146 656 0
146 655 656 0
-656 0
657 -147 -658 0
147 -657 -658 0
-657 -147 658 0
147 657 658 0
-658 0
659 -193 -660 0
193 -659 -660 0
-659 -193 660 0
193 659 660 0
-660 0
661 -195 -662 0
195 -661 -662 0
-661 -195 662 0
195 661 662 0
-662 0
663 -196 -664 0
196 -663 -664 0
-663 -196 664 0
196 663 664 0
-664 0
665 -197 -666 0
197 -665 -666 0
-665 -197 666 0
197 665 666 0
-666 0
667 -198 -668 0
198 -667 -668 0
-667 -198 668 0
198 667 668 0
-668 0
669 -199 -670 0
199 -669 -670 0
-669 -199 670 0
199 669 670 0
-670 0
671 -200 -672 0
200 -671 -672 0
-671 -200 672 0
200 671 672 0
-672 0
673 -201 -674 0
201 -673 -674 0
-673 -201 674 0
201 673 674 0
-674 0
675 -202 -676 0
202 -675 -676 0
-675 -202 676 0
202 675 676 0
-676 0
677 -203 -678 0
203 -677 -678 0
-677 -203 678 0
203 677 678 0
-678 0
679 -204 -680 0
204 -679 -680 0
-679 -204 680 0
204 679 680 0
-680 0
681 -205 -682 0
205 -681 -682 0
-681 -205 682 0
205 681 682 0
-682 0
683 -241 -684 0
241 -683 -684 0
-683 -241 684 0
241 683 684 0
-684 0
685 -243 -686 0
243 -685 -686 0
-685 -243 686 0
243 685 686 0
-686 0
687 -244 -688 0
244 -687 -688 0
-687 -244 688 0
244 687 688 0
-688 0
689 -245 -690 0
245 -689 -690 0
-689 -245 690 0
245 689 690 0
-690 0
691 -246 -692 0
246 -691 -692 0
-691 -246 692 0
246 691 692 0
-692 0
693 -247 -694 0
247 -693 -694 0
-693 -247 694 0
247 693 694 0
-694 0
695 -248 -696 0
248 -695 -696 0
-695 -248 696 0
248 695 696 0
-696 0
697 -249 -698 0
249 -697 -698 0
-697 -249 698 0
249 697 698 0
-698 0
699 -250 -700 0
250 -699 -700 0
-699 -250 700 0
250 699 700 0
-700 0
701 -251 -702 0
251 -701 -702 0
-701 -251 702 0
251 701 702 0
-702 0
703 -252 -704 0
252 -703 -704 0
-703 -252 704 0
252 703 704 0
-704 0
705 -253 -706 0
253 -705 -706 0
-705 -253 706 0
253 705 706 0
-706 0
707 -254 -708 0
254 -707 -708 0
-707 -254 708 0
254 707 708 0
-708 0
709 -255 -710 0
255 -709 -710 0
-709 -255 710 0
255 709 710 0
-710 0
711 -297 -712 0
297 -711 -712 0
-711 -297 712 0
297 711 712 0
-712 0
713 -299 -714 0
299 -713 -714 0
-713 -299 714 0
299 713 714 0
-714 0
715 -300 -716 0
300 -715 -716 0
-715 -300 716 0
300 715 716 0
-716 0
717 -301 -718 0
301 -717 -718 0
-717 -301 718 0
301 717 718 0
-718 0
719 -302 -720 0
302 -719 -720 0
-719 -302 720 0
302 719 720 0
-720 0
721 -303 -722 0
303 -721 -722 0
-721 -303 722 0
303 721 722 0
-722 0
723 -304 -724 0
304 -723 -724 0
-723 -304 724 0
304 723 724 0
-724 0
725 -305 -726 0
305 -725 -726 0
-725 -305 726 0
305 725 726 0
-726 0
727 -306 -728 0
306 -727 -728 0
-727 -306 728 0
306 727 728 0
-728 0
729 -307 -730 0
307 -729 -730 0
-729 -307 730 0
307 729 730 0
-730 0
731 -308 -732 0
308 -731 -732 0
-731 -308 732 0
308 731 732 0
-732 0
733 -309 -734 0
309 -733 -734 0
-733 -309 734 0
309 733 734 0
-734 0
735 -310 -736 0
310 -735 -736 0
-735 -310 736 0
310 735 736 0
-736 0
737 -350 -738 0
350 -737 -738 0
-737 -350 738 0
350 737 738 0
-738 0
739 -352 -740 0
352 -739 -740 0
-739 -352 740 0
352 739 740 0
-740 0
741 -353 -742 0
353 -741 -742 0
-741 -353 742 0
353 741 742 0
-742 0
743 -354 -744 0
354 -743 -744 0
-743 -354 744 0
354 743 744 0
-744 0
745 -355 -746 0
355 -745 -746 0
-745 -355 746 0
355 745 746 0
-746 0
747 -356 -748 0
356 -747 -748 0
-747 -356 748 0
356 747 748 0
-748 0
749 -357 -750 0
357 -749 -750 0
-749 -357 750 0
357 749 750 0
-750 0
751 -358 -752 0
358 -751 -752 0
-751 -358 752 0
358 751 752 0
-752 0
753 -359 -754 0
359 -753 -754 0
-753 -359 754 0
359 753 754 0
-754 0
755 -360 -756 0
360 -755 -756 0
-755 -360 756 0
360 755 756 0
-756 0
757 -361 -758 0
361 -757 -758 0
-757 -361 758 0
361 757 758 0
-758 0
759 -362 -760 0
362 -759 -760 0
-759 -362 760 0
362 759 760 0
-760 0
761 -363 -762 0
363 -761 -762 0
-761 -363 762 0
363 761 762 0
-762 0
763 -364 -764 0
364 -763 -764 0
-763 -364 764 0
364 763 764 0
-764 0
765 -365 -766 0
365 -765 -766 0
-765 -365 766 0
365 765 766 0
-766 0
767 -411 -768 0
411 -767 -768 0
-767 -411 768 0
411 767 768 0
-768 0
769 -413 -770 0
413 -769 -770 0
-769 -413 770 0
413 769 770 0
-770 0
771 -414 -772 0
414 -771 -772 0
-771 -414 772 0
414 771 772 0
-772 0
773 -415 -774 0
415 -773 -774 0
-773 -415 774 0
415 773 774 0
-774 0
775 -416 -776 0
416 -775 -776 0
-775 -416 776 0
416 775 776 0
-776 0
777 -417 -778 0
417 -777 -778 0
-777 -417 778 0
417 777 778 0
-778 0
779 -418 -780 0
418 -779 -780 0
-779 -418 780 0
418 779 780 0
-780 0
781 -419 -782 0
419 -781 -782 0
-781 -419 782 0
419 781 782 0
-782 0
783 -420 -784 0
420 -783 -784 0
-783 -420 784 0
420 783 784 0
-784 0
785 -421 -786 0
421 -785 -786 0
-785 -421 786 0
421 785 786 0
-786 0
787 -451 -788 0
451 -787 -788 0
-787 -451 788 0
451 787 788 0
-788 0
789 -453 -790 0
453 -789 -790 0
-789 -453 790 0
453 789 790 0
-790 0
791 -454 -792 0
454 -791 -792 0
-791 -454 792 0
454 791 792 0
-792 0
793 -455 -794 0
455 -793 -794 0
-793 -455 794 0
455 793 794 0
-794 0
795 -456 -796 0
456 -795 -796 0
-795 -456 796 0
456 795 796 0
-796 0
797 -457 -798 0
457 -797 -798 0
-797 -457 798 0
457 797 798 0
-798 0
799 -458 -800 0
458 -799 -800 0
-799 -458 800 0
458 799 800 0
-800 0
801 -459 -802 0
459 -801 -802 0
-801 -459 802 0
459 801 802 0
-802 0
803 -460 -804 0
460 -803 -804 0
-803 -460 804 0
460 803 804 0
-804 0
805 -461 -806 0
461 -805 -806 0
-805 -461 806 0
461 805 806 0
-806 0
807 -462 -808 0
462 -807 -808 0
-807 -462 808 0
462 807 808 0
-808 0
809 -463 -810 0
463 -809 -810 0
-809 -463 810 0
463 809 810 0
-810 0
811 -464 -812 0
464 -811 -812 0
-811 -464 812 0
464 811 812 0
-812 0
813 -502 -814 0
502 -813 -814 0
-813 -502 814 0
502 813 814 0
-814 0
815 -504 -816 0
504 -815 -816 0
-815 -504 816 0
504 815 816 0
-816 0
817 -505 -818 0
505 -817 -818 0
-817 -505 818 0
505 817 818 0
-818 0
819 -506 -820 0
506 -819 -820 0
-819 -506 820 0
506 819 820 0
-820 0
821 -507 -822 0
507 -821 -822 0
-821 -507 822 0
507 821 822 0
-822 0
823 -508 -824 0
508 -823 -824 0
-823 -508 824 0
508 823 824 0
-824 0
825 -509 -826 0
509 -825 -826 0
-825 -509 826 0
509 825 826 0
-826 0
827 -510 -828 0
510 -827 -828 0
-827 -510 828 0
510 827 828 0
-828 0
829 -511 -830 0
511 -829 -830 0
-829 -511 830 0
511 829 830 0
-830 0
831 -512 -832 0
512 -831 -832 0
-831 -512 832 0
512 831 832 0
-832 0
833 -513 -834 0
513 -833 -834 0
-833 -513 834 0
513 833 834 0
-834 0
835 -514 -836 0
514 -835 -836 0
-835 -514 836 0
514 835 836 0
-836 0
837 -515 -838 0
515 -837 -838 0
-837 -515 838 0
515 837 838 0
-838 0
1 0
3 0
5 0
7 0
9 0
11 0
13 0
15 0
17 0
19 0
-38 0
-97 0
-149 0
-207 0
-257 0
-312 0
-367 0
-423 0
-466 0
-517 0
555 -557 0
-555 557 0
555 -559 0
-555 559 0
555 -561 0
-555 561 0
555 -563 0
-555 563 0
555 -565 0
-555 565 0
555 -567 0
-555 567 0
555 -569 0
-555 569 0
555 -571 0
-555 571 0
555 -573 0
-555 573 0
557 -559 0
-557 559 0
557 -561 0
-557 561 0
557 -563 0
-557 563 0
557 -565 0
-557 565 0
557 -567 0
-557 567 0
557 -569 0
-557 569 0
557 -571 0
-557 571 0
557 -573 0
-557 573 0
559 -561 0
-559 561 0
559 -563 0
-559 563 0
559 -565 0
-559 565 0
559 -567 0
-559 567 0
559 -569 0
-559 569 0
559 -571 0
-559 571 0
559 -573 0
-559 573 0
561 -563 0
-561 563 0
561 -565 0
-561 565 0
561 -567 0
-561 567 0
561 -569 0
-561 569 0
561 -571 0
-561 571 0
561 -573 0
-561 573 0
563 -565 0
-563 565 0
563 -567 0
-563 567 0
563 -569 0
-563 569 0
563 -571 0
-563 571 0
563 -573 0
-563 573 0
565 -567 0
-565 567 0
565 -569 0
-565 569 0
565 -571 0
-565 571 0
565 -573 0
-565 573 0
567 -569 0
-567 569 0
567 -571 0
-567 571 0
567 -573 0
-567 573 0
569 -571 0
-569 571 0
569 -573 0
-569 573 0
571 -573 0
-571 573 0
615 -753 0
-615 753 0
617 -755 0
-617 755 0
619 -757 0
-619 757 0
621 -759 0
-621 759 0
623 -761 0
-623 761 0
625 -763 0
-625 763 0
627 -765 0
-627 765 0
629 -751 0
-629 751 0
